c --- [ banner ] -------------------------------------------------------------
c 
c CaDiCaL Radically Simplified CDCL SAT Solver
c Copyright (c) 2016-2021 A. Biere, M. Fleury, N. Froleyks
c 
c Version 1.5.2 ca9bff05c11bde5eae4912f9932871d1527e61d8
c g++ (GCC) 9.3.0 -Wall -Wextra -O3 -DNDEBUG
c Sun May 1 02:23:23 EDT 2022 Linux gra-login1 3.10.0-1160.59.1.el7.x86_64 x86_64
c 
c --- [ limit ] --------------------------------------------------------------
c 
c setting conflict limit to 200000 conflicts (due to '200000')
c 
c --- [ parsing input ] ------------------------------------------------------
c 
c reading DIMACS file from '12.cubes948.adj'
c opening file to read '12.cubes948.adj'
c found 'p cnf 5320 924210' header
c parsed 924210 clauses in 8.95 seconds process time
c closing file '12.cubes948.adj'
c after reading 686668115 bytes 654.9 MB
c 
c --- [ options ] ------------------------------------------------------------
c 
c all options are set to their default value
c 
c --- [ solving ] ------------------------------------------------------------
c 
c time measured in process time since initialization
c 
c  seconds   reductions  redundant  irredundant
c          MB    restarts       trail      variables
c           level   conflicts       glue        remaining
c 
c *  8.95 690  0 0   0    0    0  0% 0 923580 4147 78%
c {  9.97 724  0 0   0    0    0  0% 0 923580 4147 78%
c i 10.90 743 104 0   2   62   47 46% 6 923580 4133 78%
c i 10.92 743 98 0   2   65   47 45% 6 923580 4117 77%
c i 10.93 743 93 0   2   68   49 45% 6 923580 4104 77%
c - 14.41 700 34 1  19  300  133 40% 12 162290 4099 77%
c i 14.46 700 33 1  19  308  128 40% 11 162290 4082 77%
c i 14.60 700 33 1  20  339  149 41% 12 162290 4081 77%
c i 14.62 700 33 1  22  348  157 42% 12 162290 4080 77%
c i 14.68 700 34 1  25  355  162 42% 13 162290 4068 76%
c i 14.68 700 34 1  25  356  162 42% 13 162290 4054 76%
c i 14.68 700 33 1  26  360  165 42% 13 162290 4042 76%
c i 14.88 700 36 1  37  402  199 43% 14 162290 4041 76%
c i 14.96 700 38 1  39  411  207 43% 14 162290 3991 75%
c i 14.96 700 38 1  40  412  207 43% 14 162290 3990 75%
c i 15.01 700 39 1  41  417  211 43% 15 162290 3989 75%
c i 15.09 700 40 1  45  428  221 43% 14 162290 3988 75%
c i 15.12 700 40 1  46  439  227 43% 14 162290 3987 75%
c i 15.35 700 39 1  57  503  270 44% 15 162290 3986 75%
c i 15.37 700 40 1  57  506  272 44% 15 162290 3985 75%
c 
c  seconds   reductions  redundant   irredundant
c          MB    restarts       trail       variables
c           level   conflicts       glue         remaining
c 
c i 15.39 700 41 1  59  513  278 44% 15 162290 3984 75%
c i 15.45 700 43 1  63  524  287 44% 16 162290 3983 75%
c i 15.49 700 44 1  64  529  290 44% 16 162290 3982 75%
c i 15.64 700 45 1  70  563  317 44% 18 162290 3981 75%
c i 15.64 700 45 1  71  565  318 44% 17 162290 3980 75%
c i 15.65 700 45 1  71  567  319 44% 17 162290 3979 75%
c i 15.69 700 46 1  73  573  324 44% 18 162290 3978 75%
c i 15.76 700 48 1  76  586  333 44% 19 162290 3976 75%
c i 15.93 701 49 1  85  622  366 45% 19 162290 3975 75%
c i 15.93 701 49 1  86  625  368 45% 19 162290 3974 75%
c i 15.94 701 49 1  87  628  369 45% 19 162290 3973 75%
c i 15.94 701 49 1  88  630  369 45% 19 162290 3972 75%
c i 15.94 701 49 1  88  631  369 45% 19 162290 3971 75%
c i 15.94 701 49 1  89  632  369 45% 19 162290 3970 75%
c i 15.94 701 49 1  89  633  369 45% 19 162290 3969 75%
c i 15.94 701 49 1  89  634  369 45% 19 162290 3968 75%
c i 15.94 701 49 1  90  635  369 45% 19 162290 3967 75%
c i 15.94 701 49 1  90  636  369 45% 19 162290 3966 75%
c i 16.12 701 49 1 100  676  395 45% 19 162290 3965 75%
c i 16.17 701 50 1 101  684  401 45% 20 162290 3964 75%
c 
c  seconds   reductions  redundant   irredundant
c          MB    restarts       trail       variables
c           level   conflicts       glue         remaining
c 
c i 16.17 701 51 1 102  687  403 46% 20 162290 3963 74%
c i 16.19 701 53 1 103  694  407 46% 21 162290 3962 74%
c i 16.46 701 55 1 122  808  472 45% 23 162290 3961 74%
c i 16.49 701 55 1 122  815  478 45% 23 162290 3960 74%
c i 16.65 701 54 1 132  869  514 46% 24 162290 3959 74%
c i 16.71 701 54 1 134  884  527 46% 24 162290 3958 74%
c i 16.71 701 54 1 134  887  529 46% 24 162290 3957 74%
c i 16.74 701 54 1 134  894  532 46% 24 162290 3956 74%
c i 16.75 701 54 1 134  896  533 46% 24 162290 3955 74%
c i 16.75 701 54 1 134  897  533 46% 24 162290 3954 74%
c i 16.81 701 55 1 136  921  554 46% 24 162290 3952 74%
c i 16.89 701 57 1 145  964  581 46% 25 162290 3948 74%
c i 16.93 701 57 1 148  973  589 46% 25 162290 3947 74%
c i 17.00 701 57 1 154 1000  611 46% 26 162290 3946 74%
c } 17.00 701 57 1 154 1000  611 46% 26 162290 3946 74%
c [ 17.00 701  0 1 154 1000  611  0% 0 162290 3946 74%
c O 17.01 701 14 1 154 1003  613 34% 11 162290 3946 74%
c i 17.02 701  5 1 154 1010  618 30% 4 162290 3924 74%
c - 17.42 760  5 2 154 1026  562 32% 4 159658 3924 74%
c i 17.43 760  4 2 154 1056  565 32% 4 159658 3867 73%
c 
c  seconds   reductions  redundant  irredundant
c          MB    restarts       trail      variables
c           level   conflicts       glue        remaining
c 
c i 17.52 760 12 2 154 1124  612 40% 9 159658 3866 73%
c i 17.58 760 16 2 154 1242  697 48% 12 159658 3865 73%
c i 17.61 740 17 2 154 1356  756 50% 13 159658 3864 73%
c i 17.70 740 19 2 154 1687  945 53% 16 159658 3863 73%
c i 17.82 740 19 2 155 2084 1167 54% 17 159658 3862 73%
c - 17.99 737 19 3 155 2109  876 54% 17 158506 3862 73%
c i 18.13 737 20 3 155 2128  893 34% 17 158506 3861 73%
c i 18.25 737 20 3 155 2375 1035 36% 17 158506 3860 73%
c i 18.27 737 20 3 155 2418 1052 36% 17 158506 3859 73%
c i 18.43 737 20 3 155 2840 1278 36% 17 158506 3858 73%
c ] 18.50 737 21 3 155 3000 1355 36% 17 158506 3858 73%
c { 18.50 737 57 3 155 3000 1355 63% 26 158506 3858 73%
c F 18.51 737 57 3 157 3006 1359 63% 26 158506 3858 73%
c i 18.73 737 60 3 177 3098 1436 60% 27 158506 3857 72%
c i 18.88 737 60 3 194 3193 1485 57% 28 158506 3856 72%
c i 18.89 737 60 3 194 3198 1489 57% 28 158506 3855 72%
c i 18.89 737 60 3 194 3199 1489 57% 28 158506 3854 72%
c i 18.89 737 60 3 194 3205 1494 57% 28 158506 3853 72%
c i 18.91 737 60 3 194 3216 1504 57% 28 158506 3852 72%
c i 18.93 737 60 3 200 3244 1524 56% 28 158506 3851 72%
c 
c  seconds   reductions  redundant   irredundant
c          MB    restarts       trail       variables
c           level   conflicts       glue         remaining
c 
c i 18.95 737 61 3 204 3259 1538 56% 28 158506 3850 72%
c i 19.09 737 62 3 228 3370 1629 54% 29 158506 3849 72%
c i 19.14 737 62 3 233 3413 1668 54% 29 158506 3847 72%
c i 19.14 737 62 3 233 3416 1670 54% 29 158506 3846 72%
c i 19.15 737 62 3 233 3424 1673 53% 29 158506 3845 72%
c i 19.34 737 62 3 244 3539 1770 52% 29 158506 3844 72%
c i 19.37 737 62 3 244 3550 1780 52% 29 158506 3843 72%
c - 19.50 735 62 4 244 3550 1348 52% 29 158449 3843 72%
c i 19.55 735 61 4 244 3572 1360 51% 29 158449 3842 72%
c i 19.57 735 61 4 244 3593 1371 51% 29 158449 3841 72%
c i 19.59 735 61 4 244 3621 1387 51% 29 158449 3840 72%
c i 20.01 735 53 4 259 4084 1744 47% 26 158449 3839 72%
c i 20.14 735 51 4 259 4268 1878 46% 26 158449 3838 72%
c i 20.15 735 51 4 259 4276 1883 46% 26 158449 3837 72%
c d 20.69 735 44 4 266 5001 2387 44% 24 124203 3823 72%
c 2 20.74 735 44 4 266 5001 4579 44% 24 124126 3823 72%
c p 22.16 735 44 4 266 5001 9558 44% 24 124126 3715 70%
c d 22.33 735 44 4 266 5001 9410 44% 24 122941 3710 70%
c - 22.67 682 42 5 266 5350 1991 44% 23 122941 3710 70%
c # 22.89 682 38 5 266 6007 2547 43% 22 122941 3710 70%
c 
c  seconds   reductions  redundant   irredundant
c          MB    restarts       trail       variables
c           level   conflicts       glue         remaining
c 
c } 24.35 682 40 5 381 7000 3374 41% 23 122941 3710 70%
c [ 24.35 682 21 5 381 7000 3374 36% 17 122941 3710 70%
c - 24.64 682 21 6 382 7312 2543 36% 17 122941 3710 70%
c - 25.59 682 21 7 383 9603 2700 37% 18 122941 3710 70%
c I 25.78 682 20 7 383 10012 2970 37% 18 122941 3710 70%
c - 27.00 682 29 8 385 12221 3202 37% 24 122941 3710 70%
c ] 28.21 682 32 8 386 15001 4954 37% 27 122941 3710 70%
c { 28.21 682 40 8 386 15001 4954 41% 23 122941 3710 70%
c 2 28.26 682 40 8 386 15001 7031 41% 23 122928 3710 70%
c p 28.96 682 40 8 386 15001 11944 41% 23 122928 3710 70%
c B 29.07 682 40 8 389 15014 11955 41% 23 122928 3710 70%
c - 29.41 682 41 9 417 15163 3639 41% 23 122928 3710 70%
c s 29.81 682 40 9 422 15602 3876 41% 23 120138 3710 70%
c v 31.08 682 40 9 422 15602 3876 41% 23 120089 3710 70%
c w 31.14 682 40 9 422 15602 3872 41% 23 120089 3710 70%
c t 31.14 682 40 9 422 15602 3860 41% 23 120045 3710 70%
c e 31.49 684 40 9 422 15602 3558 41% 23 114579 882 17%
c s 31.59 684 40 9 422 15602 3558 41% 23 114028 882 17%
c - 33.54 685 36 10 513 18432 3841 64% 22 114028 882 17%
c W 35.01 685 33 10 609 21015 5618 65% 21 114028 882 17%
c 
c  seconds   reductions    redundant   irredundant
c          MB     restarts        trail       variables
c           level     conflicts       glue        remaining
c 
c - 35.18 685 32 11 611 21923 4373 66% 21 114028 882 17%
c - 36.43 685 30 12 674 25732 4698 66% 20 114028 882 17%
c F 37.05 685 28 12 691 28016 6280 67% 20 114028 882 17%
c - 38.59 684 29 13 826 29854 5190 66% 20 114028 882 17%
c 2 38.69 684 28 13 832 30005 5923 66% 20 114024 882 17%
c p 39.14 684 28 13 832 30005 7812 66% 20 114024 882 17%
c } 39.56 684 28 13 833 31003 8476 66% 19 114024 882 17%
c [ 39.56 684 32 13 833 31003 8476 161% 27 114024 882 17%
c - 40.17 684 30 14 834 34293 5530 135% 25 114024 882 17%
c B 40.53 684 29 14 836 36022 6538 126% 25 114024 882 17%
c - 41.24 684 31 15 838 39049 6179 115% 26 114024 882 17%
c s 42.88 684 33 15 840 43660 9587 104% 28 113319 882 17%
c v 44.06 684 33 15 840 43660 9587 104% 28 113288 882 17%
c w 44.10 684 33 15 840 43660 9587 104% 28 113288 882 17%
c s 44.54 685 33 15 840 43660 9586 104% 28 113023 882 17%
c - 45.12 685 33 16 840 44122 6703 103% 27 113023 882 17%
c W 45.79 685 33 16 840 45025 7272 102% 27 113023 882 17%
c - 47.11 685 32 17 841 49493 7124 96% 27 113023 882 17%
c p 47.60 685 32 17 841 50006 10165 95% 27 113023 882 17%
c O 48.84 685 31 17 842 55028 13797 91% 26 113023 882 17%
c 
c  seconds   reductions    redundant   irredundant
c          MB     restarts        trail       variables
c           level     conflicts       glue        remaining
c 
c - 48.93 685 31 18 842 55180 7950 91% 26 113023 882 17%
c - 49.89 685 30 19 847 61186 7280 87% 25 113023 882 17%
c ] 50.32 685 30 19 848 63007 8424 86% 25 113023 882 17%
c { 50.32 685 28 19 848 63007 8424 66% 19 113023 882 17%
c B 51.11 685 27 19 860 66029 10168 66% 19 113023 882 17%
c - 52.31 685 27 20 1033 67511 7667 66% 19 113023 882 17%
c - 54.29 685 25 21 1094 74145 8247 66% 19 113023 882 17%
c p 54.99 685 25 21 1094 75008 11646 66% 18 113023 882 17%
c W 56.12 685 25 21 1230 78030 13439 66% 18 113023 882 17%
c - 56.63 685 24 22 1234 81097 8766 66% 18 113023 882 17%
c - 58.36 685 23 23 1319 88365 9489 67% 17 113023 882 17%
c # 58.94 685 22 23 1332 91031 10887 67% 17 113023 882 17%
c - 60.59 685 22 24 1451 95947 9666 67% 17 113023 882 17%
c - 63.76 685 21 25 1631 103845 10269 66% 16 113023 882 17%
c p 64.78 685 21 25 1648 105008 13978 66% 16 113023 882 17%
c B 64.91 685 21 25 1648 105033 13992 66% 16 113023 882 17%
c - 68.40 685 21 26 1840 112059 10610 66% 16 113023 882 17%
c } 70.80 685 20 26 2001 118731 15122 66% 16 113023 882 17%
c 1 70.80 685 20 26 2001 118731 15122 66% 16 113023 882 17%
c 
c --- [ writing output ] -----------------------------------------------------
c 
c writing simplified CNF to DIMACS file 'simp/12.cubes948.adj.simp1'
c * 70.80 685 20 26 2001 118731 15122 66% 16 113023 882 17%
c opening file to write 'simp/12.cubes948.adj.simp1'
c writing 'p cnf 5320 113023' header
c closing file 'simp/12.cubes948.adj.simp1'
c after writing 41261065 bytes 39.3 MB
c wrote 113023 clauses in 0.30 seconds process time
c 
c --- [ writing extension ] --------------------------------------------------
c 
c writing extension stack to 'simp/12.cubes948.adj.ext1'
c opening file to write 'simp/12.cubes948.adj.ext1'
c closing file 'simp/12.cubes948.adj.ext1'
c after writing 172829 bytes 0.2 MB
c wrote 7729 witnesses in 0.00 seconds process time
c 
c --- [ result ] -------------------------------------------------------------
c 
s SATISFIABLE
c 
c --- [ run-time profiling ] -------------------------------------------------
c 
c process time taken by individual solving procedures
c (percentage relative to process time for solving)
c 
c        53.04   85.74% search
c        38.02   61.47% unstable
c        13.35   21.58% stable
c         8.95   14.46% parse
c         8.82   14.26% simplify
c         4.04    6.53% probe
c         2.52    4.08% vivify
c         1.21    1.95% elim
c         1.03    1.66% lucky
c         0.64    1.04% walk
c         0.44    0.71% subsume
c         0.13    0.21% ternary
c   =================================
c        61.86   86.99% solve
c 
c last line shows process time for solving
c (percentage relative to total process time)
c 
c --- [ statistics ] ---------------------------------------------------------
c 
c chronological:             19079        16.07 %  of conflicts
c conflicts:                118731      1919.44    per second
c decisions:                208170      3365.34    per second
c eliminated:                 2828        53.16 %  of all variables
c fixed:                      1591        29.91 %  of all variables
c learned:                  116276        97.93 %  per conflict
c learned_lits:           20130594       100.00 %  learned literals
c minimized:                     0         0.00 %  learned literals
c shrunken:               12201177        60.61 %  learned literals
c minishrunken:            1683661         8.36 %  learned literals
c propagations:            9351088         0.15 M  per second
c reduced:                   63191        53.22 %  per conflict
c rephased:                     14      8480.79    interval
c restarts:                   2001        59.34    interval
c stabilizing:                   3        35.38 %  of conflicts
c substituted:                  19         0.36 %  of all variables
c subsumed:                  42480         1.93 %  of all clauses
c strengthened:               9630         0.44 %  of all clauses
c ternary:                    6640         0.63 %  of resolved
c vivified:                    118         0.01 %  of all clauses
c walked:                        3     39577.00    interval
c weakened:                   6138         3.03    average size
c 
c seconds are measured in process time for solving
c 
c --- [ resources ] ----------------------------------------------------------
c 
c total process time since initialization:        71.11    seconds
c total real time since initialization:           71.16    seconds
c maximum resident set size of process:          795.96    MB
c 
c --- [ shutting down ] ------------------------------------------------------
c 
c exit 10
WARNING! DIMACS header mismatch: wrong number of variables.
============================[ Problem Statistics ]=============================
|                                                                             |
|  Number of variables:          3644                                         |
|  Number of clauses:          113029                                         |
|  Parse time:                   0.57 s                                       |
|  Simplification time:          0.01 s                                       |
|                                                                             |
============================[ Search Statistics ]====================================================
| Conflicts |          ORIGINAL         |          LEARNT          | Num Sols |      SUBGRAPHS      |
|           |    Vars  Clauses Literals |    Limit  Clauses Lit/Cl |          | Canonical Noncanon. |
=====================================================================================================
|       100 |    3561   113029  9285520 |     2000      100     22 |        0 |        25         0 |
|       480 |    3561   113259  9288489 |     2000      480     15 |        0 |        87       230 |
|       718 |    3561   113272  9288781 |     2000      718     27 |        0 |       107       243 |
|      1082 |    3561   113299  9289262 |     2000     1082     46 |        0 |       117       270 |
|      1697 |    3561   113408  9290937 |     2000     1697     56 |        0 |       146       379 |
|      2848 |    3561   113800  9297038 |     3611     1859     27 |        0 |       259       771 |
|      6054 |    3561   115867  9322617 |     5009     3263     16 |        0 |       620      2838 |
|     10004 |    3561   118109  9350715 |     6306     4710     23 |        0 |       912      5080 |
|     14667 |    3561   120210  9376948 |     7557     6224     27 |        0 |      1167      7181 |
|     20315 |    3561   122014  9400378 |     8785     8100     41 |        0 |      1355      8985 |
|     26863 |    3561   122796  9410886 |    11204     5267     14 |        0 |      1460      9767 |
|     37525 |    3561   124809  9437951 |    12407    10332     49 |        0 |      1701     11780 |
|     52703 |    3561   127013  9469130 |    14809    12512     51 |        0 |      1953     13984 |
|     73757 |    3561   128606  9488327 |    18409     9566     21 |        0 |      2282     15577 |
=====================================================================================================
Number of solutions   : 0
Canonical subgraphs   : 2643           (47 /sec)
          order  3    : 1              (inf /sec)
          order  4    : 1              (inf /sec)
          order  5    : 1              (inf /sec)
          order  6    : 1              (inf /sec)
          order  7    : 2              (9756 /sec)
          order  8    : 4              (2065 /sec)
          order  9    : 11             (506 /sec)
          order 10    : 50             (164 /sec)
          order 11    : 232            (54 /sec)
          order 12    : 954            (46 /sec)
          order 13    : 493            (68 /sec)
          order 14    : 530            (45 /sec)
          order 15    : 290            (33 /sec)
          order 16    : 69             (23 /sec)
          order 17    : 4              (15 /sec)
          order 18    : 0              (-nan /sec)
          order 19    : 0              (-nan /sec)
          order 20    : 0              (-nan /sec)
          order 21    : 0              (-nan /sec)
Noncanonical subgraphs: 18002          (1989 /sec)
          order  3    : 0              (-nan /sec)
          order  4    : 0              (-nan /sec)
          order  5    : 0              (-nan /sec)
          order  6    : 0              (-nan /sec)
          order  7    : 0              (-nan /sec)
          order  8    : 0              (-nan /sec)
          order  9    : 0              (-nan /sec)
          order 10    : 0              (-nan /sec)
          order 11    : 0              (-nan /sec)
          order 12    : 0              (-nan /sec)
          order 13    : 11807          (2012 /sec)
          order 14    : 3411           (2557 /sec)
          order 15    : 2313           (2136 /sec)
          order 16    : 452            (738 /sec)
          order 17    : 19             (123 /sec)
          order 18    : 0              (-nan /sec)
          order 19    : 0              (-nan /sec)
          order 20    : 0              (-nan /sec)
Canonicity checking   : 56.3965 s
Noncanonicity checking: 9.05126 s
Total canonicity time : 65.4478 s
database reductions   : 14
restarts              : 254
conflicts             : 86946          (1051 /sec)
decisions             : 147268         (0.00 % random) (1780 /sec)
propagations          : 4185093        (50596 /sec)
conflict literals     : 6621318        (49.91 % deleted)
actual reward         : 0.212098
Memory used           : 142.00 MB
CPU time              : 82.7156 s

UNSATISFIABLE
